; benchmark generated from python API
(set-info :status unknown)
(declare-fun x_months () Int)
(declare-fun x_beta () Int)
(assert
 (<= (- 1200) x_months))
(assert
 (>= 1199 x_months))
(assert
 (>= x_beta 0))
(assert
 (let ((?x2674 (+ x_months 24003)))
 (let ((?x2760 (- ?x2674 (* (div (- ?x2674 1) 12) 12))))
 (let ((?x4562 (ite (or (= ?x2760 4) (= ?x2760 6) (= ?x2760 9) (= ?x2760 11)) 30 31)))
 (let (($x4210 (and (= (mod (div (- ?x2674 1) 12) 4) 0) (and (distinct (mod (div (- ?x2674 1) 12) 100) 0) true))))
 (let ((?x3498 (ite (or $x4210 (= (mod (div (- ?x2674 1) 12) 400) 0)) 29 28)))
 (< x_beta (ite (= ?x2760 2) ?x3498 ?x4562))))))))
(assert
 (let (($x3519 (and (= x_months (- (+ (* 2020 12) 2) 24003)) (<= 27 x_beta))))
 (or (> x_months (- (+ (* 2020 12) 2) 24003)) $x3519)))
(assert
 (let (($x4173 (and (= x_months (- (+ (* 2020 12) 3) 24003)) (>= 0 x_beta))))
 (or (< x_months (- (+ (* 2020 12) 3) 24003)) $x4173)))
(assert
 (let ((?x1903 (+ x_beta 1)))
(let ((?x2331 (+ (+ x_months 0) 24003)))
(let ((?x1708 (- ?x2331 (* (div (- ?x2331 1) 12) 12))))
(let ((?x3078 (ite (or (= ?x1708 4) (= ?x1708 6) (= ?x1708 9) (= ?x1708 11)) 30 31)))
(let (($x917 (and (= (mod (div (- ?x2331 1) 12) 4) 0) (and (distinct (mod (div (- ?x2331 1) 12) 100) 0) true))))
(let (($x2163 (or $x917 (= (mod (div (- ?x2331 1) 12) 400) 0))))
(let ((?x2368 (ite (= ?x1708 2) (ite $x2163 29 28) ?x3078)))
(let ((?x1013 (ite (> 1 ?x1903) 1 (ite (> ?x1903 ?x2368) ?x2368 ?x1903))))
(let ((?x4379 (ite (> 1 ?x1013) 1 (ite (> ?x1013 ?x2368) ?x2368 ?x1013))))
(let ((?x3001 (ite (= 2 ?x1708) (ite $x2163 31 31) (ite (= 1 ?x1708) (ite $x2163 0 0) 0))))
(let ((?x3807 (ite (= 4 ?x1708) (ite $x2163 91 90) (ite (= 3 ?x1708) (ite $x2163 60 59) ?x3001))))
(let ((?x1731 (ite (= 6 ?x1708) (ite $x2163 152 151) (ite (= 5 ?x1708) (ite $x2163 121 120) ?x3807))))
(let ((?x4416 (ite (= 8 ?x1708) (ite $x2163 213 212) (ite (= 7 ?x1708) (ite $x2163 182 181) ?x1731))))
(let ((?x4244 (ite (= 10 ?x1708) (ite $x2163 274 273) (ite (= 9 ?x1708) (ite $x2163 244 243) ?x4416))))
(let ((?x3116 (ite (= 12 ?x1708) (ite $x2163 335 334) (ite (= 11 ?x1708) (ite $x2163 305 304) ?x4244))))
(let ((?x1583 (+ (* 365 (- (div (- ?x2331 1) 12) 1)) (div (- (div (- ?x2331 1) 12) 1) 4))))
(let ((?x1330 (+ (- ?x1583 (div (- (div (- ?x2331 1) 12) 1) 100)) (div (- (div (- ?x2331 1) 12) 1) 400))))
(let ((?x2139 (+ (+ (- (+ (+ ?x1330 ?x3116) (- ?x4379 1)) 730179) 1) 730179)))
(let ((?x1167 (mod ?x2139 146097)))
(let ((?x4350 (div ?x1167 36524)))
(let ((?x3499 (ite (<= 4 ?x4350) 3 ?x4350)))
(let ((?x3304 (- ?x1167 (* ?x3499 36524))))
(let ((?x1843 (mod ?x3304 1461)))
(let ((?x3264 (div ?x1843 365)))
(let ((?x1070 (ite (<= 4 ?x3264) 3 ?x3264)))
(let ((?x3202 (+ (+ (* (div ?x2139 146097) 400) (* ?x3499 100)) (* (div ?x3304 1461) 4))))
(let ((?x4112 (+ (+ ?x3202 ?x1070) 1)))
(let (($x3472 (or (and (= (mod ?x4112 4) 0) (and (distinct (mod ?x4112 100) 0) true)) (= (mod ?x4112 400) 0))))
(let ((?x3411 (- ?x1843 (* ?x1070 365))))
(let ((?x1298 (ite $x3472 31 31)))
(let (($x3318 (>= ?x3411 ?x1298)))
(let ((?x3622 (ite $x3318 (+ (- ?x3411 ?x1298) 1) (+ (- ?x3411 (ite $x3472 0 0)) 1))))
(let ((?x2054 (ite $x3472 60 59)))
(let (($x3322 (>= ?x3411 ?x2054)))
(let ((?x1638 (ite $x3472 91 90)))
(let (($x3655 (>= ?x3411 ?x1638)))
(let ((?x4643 (ite $x3655 (+ (- ?x3411 ?x1638) 1) (ite $x3322 (+ (- ?x3411 ?x2054) 1) ?x3622))))
(let ((?x4374 (ite $x3472 121 120)))
(let (($x3526 (>= ?x3411 ?x4374)))
(let ((?x1947 (ite $x3472 152 151)))
(let (($x1228 (>= ?x3411 ?x1947)))
(let ((?x3226 (ite $x1228 (+ (- ?x3411 ?x1947) 1) (ite $x3526 (+ (- ?x3411 ?x4374) 1) ?x4643))))
(let ((?x2724 (ite $x3472 182 181)))
(let (($x2907 (>= ?x3411 ?x2724)))
(let ((?x3308 (ite $x3472 213 212)))
(let (($x3823 (>= ?x3411 ?x3308)))
(let ((?x1592 (ite $x3823 (+ (- ?x3411 ?x3308) 1) (ite $x2907 (+ (- ?x3411 ?x2724) 1) ?x3226))))
(let ((?x2706 (ite $x3472 244 243)))
(let (($x2162 (>= ?x3411 ?x2706)))
(let ((?x3048 (ite $x3472 274 273)))
(let (($x2950 (>= ?x3411 ?x3048)))
(let ((?x1413 (ite $x2950 (+ (- ?x3411 ?x3048) 1) (ite $x2162 (+ (- ?x3411 ?x2706) 1) ?x1592))))
(let ((?x3002 (ite $x3472 305 304)))
(let (($x3763 (>= ?x3411 ?x3002)))
(let ((?x2023 (ite $x3472 335 334)))
(let (($x790 (>= ?x3411 ?x2023)))
(let ((?x3841 (ite $x790 (+ (- ?x3411 ?x2023) 1) (ite $x3763 (+ (- ?x3411 ?x3002) 1) ?x1413))))
(let (($x1278 (= 1 0)))
(let ((?x1272 (- (+ (* 2020 12) 3) 24003)))
(let ((?x2782 (ite $x3526 5 (ite $x3655 4 (ite $x3322 3 (ite $x3318 2 1))))))
(let ((?x1914 (ite $x2162 9 (ite $x3823 8 (ite $x2907 7 (ite $x1228 6 ?x2782))))))
(let ((?x1829 (ite $x790 12 (ite $x3763 11 (ite $x2950 10 ?x1914)))))
(let ((?x1929 (+ (* (ite $x1278 (div (- ?x2331 1) 12) ?x4112) 12) (ite $x1278 ?x1708 ?x1829))))
(and (= (- ?x1929 24003) ?x1272) (= 0 (- (ite $x1278 ?x4379 ?x3841) 1)))))))))))))))))))))))))))))))))))))))))))))))))))))))))))))))))))
(check-sat)
